815 935 413 533
853 973 414 534
831 951 400 520
716 836 397 517
797 917 425 545
712 832 360 477
885 1005 442 562
750 870 376 496
763 883 410 530
979 1099 418 538
788 908 386 506
752 872 398 518
903 1023 439 559
789 909 412 532
790 910 468 588
775 895 408 528
781 901 438 558
908 1028 369 489
789 909 387 507
772 892 430 550
757 877 422 542
721 841 360 446
953 1073 364 484
807 927 384 504
799 919 428 548
773 893 420 540
700 820 368 488
919 1039 396 516
686 806 436 556
823 943 463 583
853 973 397 517
834 954 444 564
720 840 393 513
711 831 446 566
890 1010 361 481
787 907 373 493
833 953 419 539
718 838 388 508
846 966 380 500
743 863 422 542
841 961 381 501
746 866 394 514
956 1076 360 451
986 1106 360 475
962 1082 364 484
908 1028 362 482
865 985 430 550
795 915 372 492
862 982 360 471
771 891 456 576
